91 300 63 82 62 73 81 54 96 94 70 66 91 75 97 50 83 88 95 77 91 93 75 91 60 60 83 85 86 67 79 81 91 92 63 77 65 68 81 85 62 76 50 52 50 72 78 57 59 72 84 74 64 83 64 100 93 97 84 53 89 87 58 79 52 96 56 92 64 61 77 76 87 51 52 61 98 80 93 81 77 76 54 91 84 69 64 50 90 98 78 52 58 